306 5
10 10 10 10 10 

0 0 0 0 0 0 5 2 14 26 38 50 
0 0 0 0 0 0 4 3 4 6 7 
2 0 0 0 0 1 3 11 8 5 
10 0 0 0 0 7 3 11 9 8 
10 0 0 0 0 8 3 12 10 9 
8 0 0 0 0 2 3 11 10 9 
2 0 0 0 0 4 2 12 9 
7 0 0 0 0 9 1 10 
2 0 0 0 0 5 1 13 
9 0 0 0 0 4 1 13 
10 0 0 0 0 5 2 13 166 
8 0 0 0 0 5 1 13 
0 0 0 0 0 0 1 62 
0 0 0 0 0 0 5 15 17 19 23 24 
7 1 0 0 0 0 3 22 18 16 
4 6 0 0 0 0 2 21 20 
7 5 0 0 0 0 2 21 20 
6 5 0 0 0 0 1 20 
9 4 0 0 0 0 2 20 154 
7 7 0 0 0 0 1 25 
1 8 0 0 0 0 1 25 
9 3 0 0 0 0 1 25 
7 5 0 0 0 0 1 25 
2 6 0 0 0 0 1 25 
0 0 0 0 0 0 1 62 
0 0 0 0 0 0 4 27 28 29 36 
1 0 0 0 1 0 5 35 34 32 31 30 
7 0 0 0 6 0 4 34 32 31 30 
10 0 0 0 6 0 1 30 
1 0 0 0 5 0 1 33 
9 0 0 0 5 0 1 33 
3 0 0 0 8 0 1 33 
10 0 0 0 5 0 1 37 
4 0 0 0 4 0 1 37 
3 0 0 0 6 0 2 37 76 
6 0 0 0 4 0 1 37 
0 0 0 0 0 0 1 62 
0 0 0 0 0 0 5 39 40 41 43 48 
2 1 0 0 0 0 2 47 45 
7 9 0 0 0 0 3 45 44 129 
3 5 0 0 0 0 1 42 
4 4 0 0 0 0 1 46 
6 4 0 0 0 0 1 44 
2 4 0 0 0 0 1 49 
1 8 0 0 0 0 1 49 
10 4 0 0 0 0 1 49 
2 5 0 0 0 0 1 49 
1 6 0 0 0 0 1 49 
0 0 0 0 0 0 1 62 
0 0 0 0 0 0 4 51 52 54 60 
4 0 1 0 0 0 4 59 58 55 53 
10 0 6 0 0 0 3 59 57 56 
7 0 3 0 0 0 2 57 56 
4 0 7 0 0 0 2 58 56 
7 0 6 0 0 0 1 56 
1 0 10 0 0 0 1 61 
9 0 8 0 0 0 1 61 
7 0 3 0 0 0 2 61 93 
1 0 3 0 0 0 1 61 
6 0 3 0 0 0 1 61 
0 0 0 0 0 0 1 62 
0 0 0 0 0 0 5 63 75 87 99 111 
0 0 0 0 0 0 5 64 65 67 72 73 
8 1 0 0 0 0 4 71 70 69 68 
7 6 0 0 0 0 2 71 66 
3 7 0 0 0 0 2 69 68 
2 9 0 0 0 0 2 70 68 
4 5 0 0 0 0 1 74 
9 5 0 0 0 0 1 74 
1 4 0 0 0 0 1 74 
3 7 0 0 0 0 1 74 
10 2 0 0 0 0 2 74 243 
9 4 0 0 0 0 1 74 
0 0 0 0 0 0 1 123 
0 0 0 0 0 0 4 76 78 79 85 
7 0 0 0 0 1 5 84 81 80 77 129 
6 0 0 0 0 4 2 83 82 
5 0 0 0 0 5 2 81 80 
5 0 0 0 0 5 1 80 
4 0 0 0 0 7 1 86 
6 0 0 0 0 10 1 86 
8 0 0 0 0 4 1 86 
3 0 0 0 0 4 1 86 
9 0 0 0 0 4 1 86 
4 0 0 0 0 6 1 86 
0 0 0 0 0 0 1 123 
0 0 0 0 0 0 4 88 89 96 97 
10 0 0 1 0 0 4 95 94 91 90 
1 0 0 3 0 0 3 94 93 91 
8 0 0 3 0 0 2 93 92 
10 0 0 8 0 0 1 92 
1 0 0 6 0 0 2 98 285 
6 0 0 6 0 0 1 98 
2 0 0 6 0 0 1 98 
5 0 0 5 0 0 1 98 
4 0 0 4 0 0 1 98 
9 0 0 8 0 0 1 98 
0 0 0 0 0 0 1 123 
0 0 0 0 0 0 5 100 101 103 104 109 
4 0 1 0 0 0 3 108 107 105 
3 0 3 0 0 0 1 102 
8 0 5 0 0 0 1 105 
9 0 10 0 0 0 1 106 
10 0 9 0 0 0 1 105 
7 0 4 0 0 0 1 110 
9 0 5 0 0 0 1 110 
7 0 4 0 0 0 2 110 303 
1 0 5 0 0 0 1 110 
2 0 4 0 0 0 1 110 
0 0 0 0 0 0 1 123 
0 0 0 0 0 0 5 112 113 114 117 121 
2 0 0 0 0 1 2 120 115 
7 0 0 0 0 5 2 116 115 
1 0 0 0 0 7 2 119 116 
2 0 0 0 0 5 2 119 118 
2 0 0 0 0 6 1 118 
5 0 0 0 0 2 1 118 
4 0 0 0 0 6 1 122 
6 0 0 0 0 4 2 122 207 
4 0 0 0 0 5 1 122 
3 0 0 0 0 9 1 122 
0 0 0 0 0 0 1 123 
0 0 0 0 0 0 5 124 136 148 160 172 
0 0 0 0 0 0 4 125 127 128 134 
3 0 0 0 1 0 3 133 132 126 
5 0 0 0 5 0 2 131 129 
8 0 0 0 8 0 2 130 129 
8 0 0 0 5 0 2 130 129 
8 0 0 0 3 0 1 135 
10 0 0 0 5 0 1 135 
4 0 0 0 3 0 2 135 239 
4 0 0 0 6 0 1 135 
1 0 0 0 9 0 1 135 
3 0 0 0 5 0 1 135 
0 0 0 0 0 0 1 184 
0 0 0 0 0 0 5 137 138 139 141 146 
3 0 1 0 0 0 3 144 142 140 
7 0 3 0 0 0 2 145 142 
8 0 4 0 0 0 2 144 142 
8 0 7 0 0 0 1 143 
9 0 6 0 0 0 1 143 
5 0 6 0 0 0 1 147 
1 0 5 0 0 0 1 147 
5 0 5 0 0 0 1 147 
6 0 9 0 0 0 2 147 162 
8 0 4 0 0 0 1 147 
0 0 0 0 0 0 1 184 
0 0 0 0 0 0 5 149 150 151 155 158 
10 2 0 0 0 0 2 157 154 
10 3 0 0 0 0 2 153 152 
10 10 0 0 0 0 2 157 156 
3 5 0 0 0 0 2 156 287 
6 7 0 0 0 0 1 156 
5 3 0 0 0 0 1 156 
2 7 0 0 0 0 1 157 
5 7 0 0 0 0 1 159 
10 3 0 0 0 0 1 159 
2 3 0 0 0 0 1 159 
0 0 0 0 0 0 1 184 
0 0 0 0 0 0 2 161 162 
6 0 0 0 0 1 6 170 169 168 165 163 217 
9 0 0 0 0 5 3 168 164 163 
2 0 0 0 0 5 2 167 166 
1 0 0 0 0 7 1 167 
2 0 0 0 0 7 1 166 
8 0 0 0 0 3 1 171 
7 0 0 0 0 6 1 171 
8 0 0 0 0 5 1 171 
5 0 0 0 0 6 1 171 
5 0 0 0 0 5 1 171 
0 0 0 0 0 0 1 184 
0 0 0 0 0 0 7 173 174 179 180 181 182 268 
10 0 1 0 0 0 2 176 175 
6 0 8 0 0 0 2 178 176 
7 0 4 0 0 0 1 177 
2 0 6 0 0 0 1 183 
9 0 7 0 0 0 1 183 
4 0 6 0 0 0 1 183 
10 0 7 0 0 0 1 183 
9 0 5 0 0 0 1 183 
2 0 2 0 0 0 1 183 
6 0 4 0 0 0 1 183 
0 0 0 0 0 0 1 184 
0 0 0 0 0 0 5 185 197 209 221 233 
0 0 0 0 0 0 2 186 187 
3 1 0 0 0 0 5 193 192 190 189 188 
3 6 0 0 0 0 6 192 191 190 189 188 201 
3 9 0 0 0 0 2 195 194 
4 6 0 0 0 0 2 195 194 
7 7 0 0 0 0 2 195 194 
4 2 0 0 0 0 2 195 194 
3 3 0 0 0 0 1 195 
7 2 0 0 0 0 1 194 
3 6 0 0 0 0 1 196 
6 8 0 0 0 0 1 196 
0 0 0 0 0 0 1 245 
0 0 0 0 0 0 4 198 200 201 207 
9 0 0 0 0 1 3 206 205 199 
2 0 0 0 0 6 3 203 202 256 
4 0 0 0 0 4 2 204 202 
5 0 0 0 0 5 1 202 
3 0 0 0 0 8 1 208 
10 0 0 0 0 7 1 208 
1 0 0 0 0 3 1 208 
3 0 0 0 0 6 1 208 
1 0 0 0 0 4 1 208 
6 0 0 0 0 6 1 208 
0 0 0 0 0 0 1 245 
0 0 0 0 0 0 6 210 215 216 217 218 219 
6 0 0 0 0 1 3 214 213 211 
7 0 0 0 0 5 1 212 
5 0 0 0 0 9 1 220 
2 0 0 0 0 7 1 220 
6 0 0 0 0 1 1 220 
6 0 0 0 0 5 2 220 289 
9 0 0 0 0 7 1 220 
6 0 0 0 0 4 1 220 
4 0 0 0 0 7 1 220 
1 0 0 0 0 4 1 220 
0 0 0 0 0 0 1 245 
0 0 0 0 0 0 4 222 223 224 225 
7 0 0 0 0 1 3 228 227 226 
8 0 0 0 0 2 3 228 227 226 
3 0 0 0 0 6 2 227 226 
4 0 0 0 0 8 2 231 228 
1 0 0 0 0 10 2 231 230 
8 0 0 0 0 3 2 230 229 
8 0 0 0 0 8 1 229 
2 0 0 0 0 2 2 232 237 
5 0 0 0 0 5 1 232 
10 0 0 0 0 5 1 232 
0 0 0 0 0 0 1 245 
0 0 0 0 0 0 5 234 235 236 238 248 
5 0 0 1 0 0 4 243 241 240 237 
6 0 0 3 0 0 3 242 241 237 
7 0 0 6 0 0 2 240 239 
1 0 0 6 0 0 1 239 
10 0 0 4 0 0 1 240 
9 0 0 7 0 0 1 244 
2 0 0 4 0 0 1 244 
8 0 0 6 0 0 1 244 
4 0 0 7 0 0 1 244 
8 0 0 6 0 0 1 244 
0 0 0 0 0 0 1 245 
0 0 0 0 0 0 5 246 258 270 282 294 
0 0 0 0 0 0 6 247 248 249 251 252 276 
4 0 0 1 0 0 3 256 255 250 
9 0 0 4 0 0 2 256 253 
3 0 0 4 0 0 2 254 253 
9 0 0 5 0 0 1 253 
5 0 0 6 0 0 1 255 
10 0 0 5 0 0 1 254 
4 0 0 9 0 0 1 257 
4 0 0 6 0 0 1 257 
1 0 0 5 0 0 1 257 
2 0 0 5 0 0 1 257 
0 0 0 0 0 0 1 306 
0 0 0 0 0 0 6 259 260 265 266 267 268 
3 0 0 1 0 0 2 264 263 
6 0 0 2 0 0 1 261 
4 0 0 7 0 0 1 262 
4 0 0 3 0 0 1 269 
4 0 0 6 0 0 1 269 
8 0 0 9 0 0 1 269 
10 0 0 5 0 0 2 269 278 
10 0 0 10 0 0 1 269 
5 0 0 4 0 0 1 269 
9 0 0 3 0 0 1 269 
0 0 0 0 0 0 1 306 
0 0 0 0 0 0 5 271 272 273 274 280 
4 1 0 0 0 0 3 278 277 275 
5 8 0 0 0 0 3 278 277 275 
3 8 0 0 0 0 3 279 278 276 
4 3 0 0 0 0 3 277 276 292 
5 3 0 0 0 0 1 276 
4 6 0 0 0 0 1 281 
6 2 0 0 0 0 1 281 
3 7 0 0 0 0 1 281 
10 5 0 0 0 0 1 281 
6 7 0 0 0 0 1 281 
0 0 0 0 0 0 1 306 
0 0 0 0 0 0 4 283 285 286 288 
7 0 0 0 0 1 2 290 284 
6 0 0 0 0 4 3 292 291 289 
1 0 0 0 0 3 2 291 290 
6 0 0 0 0 3 1 287 
3 0 0 0 0 9 1 289 
3 0 0 0 0 7 1 290 
5 0 0 0 0 7 2 293 302 
5 0 0 0 0 8 1 293 
9 0 0 0 0 4 1 293 
2 0 0 0 0 4 1 293 
0 0 0 0 0 0 1 306 
0 0 0 0 0 0 5 295 296 297 298 299 
6 0 0 1 0 0 4 304 303 302 300 
5 0 0 6 0 0 3 304 303 301 
2 0 0 3 0 0 3 303 302 301 
8 0 0 4 0 0 2 302 300 
10 0 0 4 0 0 1 300 
9 0 0 5 0 0 1 301 
3 0 0 10 0 0 1 305 
2 0 0 4 0 0 1 305 
2 0 0 8 0 0 1 305 
9 0 0 5 0 0 1 305 
0 0 0 0 0 0 1 306 
0 0 0 0 0 0 0 
